NAME : mtspf.pid6260.gtsp.123480439.tour
COMMENT : Length = 123480439
COMMENT : Found by LKH [Keld Helsgaun] Tue Feb  4 20:05:41 2025
TYPE : TOUR
DIMENSION : 83
TOUR_SECTION
1
68
69
70
71
25
26
27
24
21
22
23
20
64
65
66
67
19
16
17
18
51
48
49
50
74
75
72
73
37
38
39
36
2
28
29
30
31
53
54
55
52
3
45
46
47
44
14
15
12
13
8
9
10
11
43
40
41
42
82
83
80
81
33
34
35
32
58
59
56
57
5
6
7
4
61
62
63
60
79
76
77
78
-1
EOF
